WARNING: for repeatability, setting FPU to use double precision
============================[ Problem Statistics ]=============================
|                                                                             |
|  Number of variables:            40                                         |
|  Number of clauses:             148                                         |
|  Parse time:                   0.00 s                                       |
|                                                                             |
============================[ Search Statistics ]==============================
| Conflicts |          ORIGINAL         |          LEARNT          | Progress |
|           |    Vars  Clauses Literals |    Limit  Clauses Lit/Cl |          |
===============================================================================
|       100 |      40      148      320 |       54       42      7 |  0.136 % |
===============================================================================
restarts              : 2
conflicts             : 170            (inf /sec)
decisions             : 207            (0.00 % random) (inf /sec)
propagations          : 2539           (inf /sec)
conflict literals     : 1242           (11.22 % deleted)
Memory used           : 11.00 MB
CPU time              : 0 s

UNSATISFIABLE
